%%%mzn-stat: initTime=0.005389004
%%%mzn-stat: objective=378
%%%mzn-stat: nodes=1673
%%%mzn-stat: restarts=0
%%%mzn-stat: peakDepth=134
%%%mzn-stat: solveTime=0.07506146
%%%mzn-stat: variables=526
%%%mzn-stat: propagators=369
%%%mzn-stat: failures=527
%%%mzn-stat: propagations=114146
%%%mzn-stat: nogoods=527
%%%mzn-stat: AverageConflictSize=11.485768500948767
%%%mzn-stat: NumUnitNogoodsLearned=377
%%%mzn-stat: AverageLearnedNogoodLength=7.734345351043643
%%%mzn-stat: AverageBacktrackAmount=0
%%%mzn-stat: AverageLbd=2.318785578747628
%%%mzn-stat-end
maxleg = 378;
succ = array1d(1..20,[15, 7, 1, 2, 3, 18, 19, 14, 8, 9, 6, 11, 12, 20, 16, 10, 5, 17, 13, 4]);
% time elapsed: 1.52 s
----------
==========
% time elapsed: 1.52 s
%%%mzn-stat: initTime=0.005389004
%%%mzn-stat: objective=378
%%%mzn-stat: nodes=1673
%%%mzn-stat: restarts=0
%%%mzn-stat: peakDepth=134
%%%mzn-stat: solveTime=0.075064308
%%%mzn-stat: variables=526
%%%mzn-stat: propagators=369
%%%mzn-stat: failures=527
%%%mzn-stat: propagations=114146
%%%mzn-stat: nogoods=527
%%%mzn-stat: AverageConflictSize=11.485768500948767
%%%mzn-stat: NumUnitNogoodsLearned=377
%%%mzn-stat: AverageLearnedNogoodLength=7.734345351043643
%%%mzn-stat: AverageBacktrackAmount=0
%%%mzn-stat: AverageLbd=2.318785578747628
%%%mzn-stat-end
